
  23    0


   0  10 2 3 5 8 9 10 19 20 21 22 
   9   5 18 17 13 7 4 
  10   3 16 15 13 
   4   2 12 6 
   5   1 6 
   7   1 11 
   9   1 12 
  10   1 14 
   1   1 11 
   6   1 11 
   8   1 23
   8   1 23
   6   1 23
   3   1 23
   2   1 23
   1   1 23
   7   1 23
   1   1 23
   4   1 23
   3   1 23
   2   1 23
   7   1 23
   0   0 
